data/mip_solutions/furman_sahinidis/transshipment/7sp4_gurobi.sol
Elapsed time: 0.0848979949951
Nodes explored: 0
Upper bound: 8.0
Lower bound: 8.0
y[0,0]=1
y[1,0]=1
y[2,0]=1
y[3,0]=1
y[4,1]=1
y[5,0]=1
y[5,1]=1
y[6,0]=1
q[0,0,3]=1077.046343
q[0,0,5]=571.492686
q[0,0,6]=383.899902
q[0,0,7]=275.52204
q[1,0,2]=158.222346
q[1,0,3]=293.123388
q[2,0,3]=145.077514
q[2,0,6]=415.45
q[3,0,4]=413.258265
q[3,0,5]=805.993539
q[3,0,6]=275.41894
q[4,1,6]=1055.079113
q[5,0,6]=1707.775648
q[5,1,6]=856.681679
q[6,0,0]=730.088775
q[6,0,1]=1170.86949
q[6,0,2]=530.533164
r[0,2]=373.667686
r[0,3]=593.475
r[0,5]=131.885971
r[0,7]=275.52204
r[1,3]=2.973388
r[2,5]=39.567458
r[2,6]=171.455028
r[3,5]=114.285619
r[3,6]=275.41894
r[4,6]=351.6909275
r[6,1]=1701.402654
r[6,2]=530.533164
